%CPU=0-3
#Force B3LYP/cc-pVDZ

CH4

0 1
C                 6.6291180000        6.6291180000        6.6291180000
H                 7.2582360000        7.2582360000        7.2582360000
H                 6.0000000000        6.0000000000        7.2582360000
H                 7.2582360000        6.0000000000        6.0000000000
H                 6.0000000000        7.2582360000        6.0000000000
