ISTART = 0
GGA = PE
IVDW = 11
NPAR = 4
LWAVE=.FALSE.
LCHARG=.FALSE.
