 C  H
 1.0000000000000000
    13.2582360000000001    0.0000000000000000    0.0000000000000000
     0.0000000000000000   13.2582360000000001    0.0000000000000000
     0.0000000000000000    0.0000000000000000   13.2582360000000001
 C   H
   1   4
Cartesian
  6.6291180000000001  6.6291180000000001  6.6291180000000001
  7.2582360000000001  7.2582360000000001  7.2582360000000001
  6.0000000000000000  6.0000000000000000  7.2582360000000001
  7.2582360000000001  6.0000000000000000  6.0000000000000000
  6.0000000000000000  7.2582360000000001  6.0000000000000000
